;;;;;;;;;;;;;;;;;;;;;;;;;;;;;;;;  BEGIN HEADER  ;;;;;;;;;;;;;;;;;;;;;;;;;;;;;;;;

(declare-const x Int)
(declare-const y Int)
(declare-const a1 Int)
(declare-const a2 Int)
(declare-const a3 Int)

(declare-const x-lt-zero Bool)
(declare-const y-lt-zero Bool)

;;;;;;;;;;;;;;;;;;;;;;;;;;;;;;;;;  END HEADER  ;;;;;;;;;;;;;;;;;;;;;;;;;;;;;;;;;

;;;;;;;;;;;;;;;;; START STUDENT CODE ;;;;;;;;;;;;;;;

;;;;;;;;;;;;;;;;; END STUDENT CODE ;;;;;;;;;;;;;;;
